scip/project/repair/build/misc03_0.lp
\ SCIP STATISTICS
\   Problem name     : MISC03
\   Variables        : 160 (159 binary, 0 integer, 0 implicit integer, 1 continuous)
\   Constraints      : 96
\   Obj. scale       : 1
\   Obj. offset      : 0
Minimize
 Obj: +1 COL160
Subject to
 ROW001: -205 COL004 -205 COL005 -205 COL006 -550 COL007 -550 COL008 -550 COL009 -490 COL010 -490 COL011
  -490 COL012 -660 COL013 -660 COL014 -660 COL015 -425 COL016 -425 COL017 -425 COL018 -425 COL019 -425 COL020
  -425 COL021 -205 COL022 -205 COL023 -205 COL024 -350 COL028 -350 COL029 -350 COL030 -500 COL031 -500 COL032
  -500 COL033 -760 COL034 -760 COL035 -760 COL036 -570 COL037 -570 COL038 -570 COL039 -285 COL040 -285 COL041
  -285 COL042 -550 COL043 -550 COL044 -550 COL045 -350 COL046 -350 COL047 -350 COL048 -610 COL052 -610 COL053
  -610 COL054 -955 COL055 -955 COL056 -955 COL057 -830 COL058 -830 COL059 -830 COL060 -250 COL061 -250 COL062
  -250 COL063 -490 COL064 -490 COL065 -490 COL066 -500 COL067 -500 COL068 -500 COL069 -610 COL070 -610 COL071
  -610 COL072 -360 COL076 -360 COL077 -360 COL078 -355 COL079 -355 COL080 -355 COL081 -360 COL082 -360 COL083
  -360 COL084 -660 COL085 -660 COL086 -660 COL087 -760 COL088 -760 COL089 -760 COL090 -955 COL091 -955 COL092
  -955 COL093 -360 COL094 -360 COL095 -360 COL096 -255 COL100 -255 COL101 -255 COL102 -705 COL103 -705 COL104
  -705 COL105 -425 COL106 -425 COL107 -425 COL108 -570 COL109 -570 COL110 -570 COL111 -830 COL112 -830 COL113
  -830 COL114 -355 COL115 -355 COL116 -355 COL117 -255 COL118 -255 COL119 -255 COL120 -605 COL124 -605 COL125
  -605 COL126 -425 COL127 -425 COL128 -425 COL129 -285 COL130 -285 COL131 -285 COL132 -250 COL133 -250 COL134
  -250 COL135 -360 COL136 -360 COL137 -360 COL138 -705 COL139 -705 COL140 -705 COL141 -605 COL142 -605 COL143
  -605 COL144 -300 COL148 -300 COL149 -75 COL150 -75 COL151 -75 COL152 -75 COL153 -75 COL154 -75 COL155
  -75 COL156 -75 COL157 -75 COL158 -75 COL159 +1 COL160 = +0
 ROW003: +1 COL022 +1 COL023 +1 COL024 +1 COL025 +1 COL026 +1 COL027 +1 COL028 +1 COL029 +1 COL030 +1 COL031
  +1 COL032 +1 COL033 +1 COL034 +1 COL035 +1 COL036 +1 COL037 +1 COL038 +1 COL039 +1 COL040 +1 COL041
  +1 COL042 = +1
 ROW005: +1 COL064 +1 COL065 +1 COL066 +1 COL067 +1 COL068 +1 COL069 +1 COL070 +1 COL071 +1 COL072 +1 COL073
  +1 COL074 +1 COL075 +1 COL076 +1 COL077 +1 COL078 +1 COL079 +1 COL080 +1 COL081 +1 COL082 +1 COL083
  +1 COL084 = +1
 ROW006: +1 COL085 +1 COL086 +1 COL087 +1 COL088 +1 COL089 +1 COL090 +1 COL091 +1 COL092 +1 COL093 +1 COL094
  +1 COL095 +1 COL096 +1 COL097 +1 COL098 +1 COL099 +1 COL100 +1 COL101 +1 COL102 +1 COL103 +1 COL104
  +1 COL105 = +1
 ROW007: +100 COL001 +100 COL004 +100 COL007 +100 COL010 +100 COL013 +100 COL016 +100 COL019 +100 COL022
  +100 COL025 +100 COL028 +100 COL031 +100 COL034 +100 COL037 +100 COL040 +100 COL043 +100 COL046 +100 COL049
  +100 COL052 +100 COL055 +100 COL058 +100 COL061 +100 COL064 +100 COL067 +100 COL070 +100 COL073 +100 COL076
  +100 COL079 +100 COL082 +100 COL085 +100 COL088 +100 COL091 +100 COL094 +100 COL097 +100 COL100 +100 COL103
  <= +200
 ROW010: +1 COL004 +1 COL005 +1 COL006 +1 COL007 +1 COL008 +1 COL009 +1 COL010 +1 COL011 +1 COL012 +1 COL013
  +1 COL014 +1 COL015 +1 COL109 +1 COL110 +1 COL111 +1 COL112 +1 COL113 +1 COL114 +1 COL115 +1 COL116
  +1 COL117 +1 COL118 +1 COL119 +1 COL120 +1 COL130 +1 COL131 +1 COL132 +1 COL133 +1 COL134 +1 COL135
  +1 COL136 +1 COL137 +1 COL138 +1 COL139 +1 COL140 +1 COL141 >= +1
 ROW011: +1 COL022 +1 COL023 +1 COL024 +1 COL028 +1 COL029 +1 COL030 +1 COL031 +1 COL032 +1 COL033 +1 COL034
  +1 COL035 +1 COL036 +1 COL106 +1 COL107 +1 COL108 +1 COL112 +1 COL113 +1 COL114 +1 COL115 +1 COL116
  +1 COL117 +1 COL118 +1 COL119 +1 COL120 +1 COL127 +1 COL128 +1 COL129 +1 COL133 +1 COL134 +1 COL135
  +1 COL136 +1 COL137 +1 COL138 +1 COL139 +1 COL140 +1 COL141 >= +1
 ROW012: +1 COL007 +1 COL008 +1 COL009 +1 COL010 +1 COL011 +1 COL012 +1 COL013 +1 COL014 +1 COL015 +1 COL028
  +1 COL029 +1 COL030 +1 COL031 +1 COL032 +1 COL033 +1 COL034 +1 COL035 +1 COL036 +1 COL112 +1 COL113
  +1 COL114 +1 COL115 +1 COL116 +1 COL117 +1 COL118 +1 COL119 +1 COL120 +1 COL133 +1 COL134 +1 COL135
  +1 COL136 +1 COL137 +1 COL138 +1 COL139 +1 COL140 +1 COL141 >= +1
 ROW013: +1 COL043 +1 COL044 +1 COL045 +1 COL046 +1 COL047 +1 COL048 +1 COL052 +1 COL053 +1 COL054 +1 COL055
  +1 COL056 +1 COL057 +1 COL106 +1 COL107 +1 COL108 +1 COL109 +1 COL110 +1 COL111 +1 COL115 +1 COL116
  +1 COL117 +1 COL118 +1 COL119 +1 COL120 +1 COL127 +1 COL128 +1 COL129 +1 COL130 +1 COL131 +1 COL132
  +1 COL136 +1 COL137 +1 COL138 +1 COL139 +1 COL140 +1 COL141 >= +1
 ROW014: +1 COL004 +1 COL005 +1 COL006 +1 COL010 +1 COL011 +1 COL012 +1 COL013 +1 COL014 +1 COL015 +1 COL046
  +1 COL047 +1 COL048 +1 COL052 +1 COL053 +1 COL054 +1 COL055 +1 COL056 +1 COL057 +1 COL109 +1 COL110
  +1 COL111 +1 COL115 +1 COL116 +1 COL117 +1 COL118 +1 COL119 +1 COL120 +1 COL130 +1 COL131 +1 COL132
  +1 COL136 +1 COL137 +1 COL138 +1 COL139 +1 COL140 +1 COL141 >= +1
 ROW015: +1 COL022 +1 COL023 +1 COL024 +1 COL031 +1 COL032 +1 COL033 +1 COL034 +1 COL035 +1 COL036 +1 COL043
  +1 COL044 +1 COL045 +1 COL052 +1 COL053 +1 COL054 +1 COL055 +1 COL056 +1 COL057 +1 COL106 +1 COL107
  +1 COL108 +1 COL115 +1 COL116 +1 COL117 +1 COL118 +1 COL119 +1 COL120 +1 COL127 +1 COL128 +1 COL129
  +1 COL136 +1 COL137 +1 COL138 +1 COL139 +1 COL140 +1 COL141 >= +1
 ROW016: +1 COL010 +1 COL011 +1 COL012 +1 COL013 +1 COL014 +1 COL015 +1 COL031 +1 COL032 +1 COL033 +1 COL034
  +1 COL035 +1 COL036 +1 COL052 +1 COL053 +1 COL054 +1 COL055 +1 COL056 +1 COL057 +1 COL115 +1 COL116
  +1 COL117 +1 COL118 +1 COL119 +1 COL120 +1 COL136 +1 COL137 +1 COL138 +1 COL139 +1 COL140 +1 COL141
  >= +1
 ROW018: +1 COL004 +1 COL005 +1 COL006 +1 COL007 +1 COL008 +1 COL009 +1 COL013 +1 COL014 +1 COL015 +1 COL067
  +1 COL068 +1 COL069 +1 COL070 +1 COL071 +1 COL072 +1 COL076 +1 COL077 +1 COL078 +1 COL109 +1 COL110
  +1 COL111 +1 COL112 +1 COL113 +1 COL114 +1 COL118 +1 COL119 +1 COL120 +1 COL130 +1 COL131 +1 COL132
  +1 COL133 +1 COL134 +1 COL135 +1 COL139 +1 COL140 +1 COL141 >= +1
 ROW019: +1 COL022 +1 COL023 +1 COL024 +1 COL028 +1 COL029 +1 COL030 +1 COL034 +1 COL035 +1 COL036 +1 COL064
  +1 COL065 +1 COL066 +1 COL070 +1 COL071 +1 COL072 +1 COL076 +1 COL077 +1 COL078 +1 COL106 +1 COL107
  +1 COL108 +1 COL112 +1 COL113 +1 COL114 +1 COL118 +1 COL119 +1 COL120 +1 COL127 +1 COL128 +1 COL129
  +1 COL133 +1 COL134 +1 COL135 +1 COL139 +1 COL140 +1 COL141 >= +1
 ROW020: +1 COL007 +1 COL008 +1 COL009 +1 COL013 +1 COL014 +1 COL015 +1 COL028 +1 COL029 +1 COL030 +1 COL034
  +1 COL035 +1 COL036 +1 COL070 +1 COL071 +1 COL072 +1 COL076 +1 COL077 +1 COL078 +1 COL112 +1 COL113
  +1 COL114 +1 COL118 +1 COL119 +1 COL120 +1 COL133 +1 COL134 +1 COL135 +1 COL139 +1 COL140 +1 COL141
  >= +1
 ROW021: +1 COL043 +1 COL044 +1 COL045 +1 COL046 +1 COL047 +1 COL048 +1 COL055 +1 COL056 +1 COL057 +1 COL064
  +1 COL065 +1 COL066 +1 COL067 +1 COL068 +1 COL069 +1 COL076 +1 COL077 +1 COL078 +1 COL106 +1 COL107
  +1 COL108 +1 COL109 +1 COL110 +1 COL111 +1 COL118 +1 COL119 +1 COL120 +1 COL127 +1 COL128 +1 COL129
  +1 COL130 +1 COL131 +1 COL132 +1 COL139 +1 COL140 +1 COL141 >= +1
 ROW023: +1 COL022 +1 COL023 +1 COL024 +1 COL034 +1 COL035 +1 COL036 +1 COL043 +1 COL044 +1 COL045 +1 COL055
  +1 COL056 +1 COL057 +1 COL064 +1 COL065 +1 COL066 +1 COL076 +1 COL077 +1 COL078 +1 COL106 +1 COL107
  +1 COL108 +1 COL118 +1 COL119 +1 COL120 +1 COL127 +1 COL128 +1 COL129 +1 COL139 +1 COL140 +1 COL141
  >= +1
 ROW024: +1 COL013 +1 COL014 +1 COL015 +1 COL034 +1 COL035 +1 COL036 +1 COL055 +1 COL056 +1 COL057 +1 COL076
  +1 COL077 +1 COL078 +1 COL118 +1 COL119 +1 COL120 +1 COL139 +1 COL140 +1 COL141 >= +1
 ROW025: +1 COL085 +1 COL086 +1 COL087 +1 COL088 +1 COL089 +1 COL090 +1 COL091 +1 COL092 +1 COL093 +1 COL094
  +1 COL095 +1 COL096 +1 COL106 +1 COL107 +1 COL108 +1 COL109 +1 COL110 +1 COL111 +1 COL112 +1 COL113
  +1 COL114 +1 COL115 +1 COL116 +1 COL117 +1 COL127 +1 COL128 +1 COL129 +1 COL130 +1 COL131 +1 COL132
  +1 COL133 +1 COL134 +1 COL135 +1 COL136 +1 COL137 +1 COL138 >= +1
 ROW026: +1 COL004 +1 COL005 +1 COL006 +1 COL007 +1 COL008 +1 COL009 +1 COL010 +1 COL011 +1 COL012 +1 COL088
  +1 COL089 +1 COL090 +1 COL091 +1 COL092 +1 COL093 +1 COL094 +1 COL095 +1 COL096 +1 COL109 +1 COL110
  +1 COL111 +1 COL112 +1 COL113 +1 COL114 +1 COL115 +1 COL116 +1 COL117 +1 COL130 +1 COL131 +1 COL132
  +1 COL133 +1 COL134 +1 COL135 +1 COL136 +1 COL137 +1 COL138 >= +1
 ROW027: +1 COL022 +1 COL023 +1 COL024 +1 COL028 +1 COL029 +1 COL030 +1 COL031 +1 COL032 +1 COL033 +1 COL085
  +1 COL086 +1 COL087 +1 COL091 +1 COL092 +1 COL093 +1 COL094 +1 COL095 +1 COL096 +1 COL106 +1 COL107
  +1 COL108 +1 COL112 +1 COL113 +1 COL114 +1 COL115 +1 COL116 +1 COL117 +1 COL127 +1 COL128 +1 COL129
  +1 COL133 +1 COL134 +1 COL135 +1 COL136 +1 COL137 +1 COL138 >= +1
 ROW028: +1 COL007 +1 COL008 +1 COL009 +1 COL010 +1 COL011 +1 COL012 +1 COL028 +1 COL029 +1 COL030 +1 COL031
  +1 COL032 +1 COL033 +1 COL091 +1 COL092 +1 COL093 +1 COL094 +1 COL095 +1 COL096 +1 COL112 +1 COL113
  +1 COL114 +1 COL115 +1 COL116 +1 COL117 +1 COL133 +1 COL134 +1 COL135 +1 COL136 +1 COL137 +1 COL138
  >= +1
 ROW029: +1 COL043 +1 COL044 +1 COL045 +1 COL046 +1 COL047 +1 COL048 +1 COL052 +1 COL053 +1 COL054 +1 COL085
  +1 COL086 +1 COL087 +1 COL088 +1 COL089 +1 COL090 +1 COL094 +1 COL095 +1 COL096 +1 COL106 +1 COL107
  +1 COL108 +1 COL109 +1 COL110 +1 COL111 +1 COL115 +1 COL116 +1 COL117 +1 COL127 +1 COL128 +1 COL129
  +1 COL130 +1 COL131 +1 COL132 +1 COL136 +1 COL137 +1 COL138 >= +1
 ROW030: +1 COL004 +1 COL005 +1 COL006 +1 COL010 +1 COL011 +1 COL012 +1 COL046 +1 COL047 +1 COL048 +1 COL052
  +1 COL053 +1 COL054 +1 COL088 +1 COL089 +1 COL090 +1 COL094 +1 COL095 +1 COL096 +1 COL109 +1 COL110
  +1 COL111 +1 COL115 +1 COL116 +1 COL117 +1 COL130 +1 COL131 +1 COL132 +1 COL136 +1 COL137 +1 COL138
  >= +1
 ROW031: +1 COL022 +1 COL023 +1 COL024 +1 COL031 +1 COL032 +1 COL033 +1 COL043 +1 COL044 +1 COL045 +1 COL052
  +1 COL053 +1 COL054 +1 COL085 +1 COL086 +1 COL087 +1 COL094 +1 COL095 +1 COL096 +1 COL106 +1 COL107
  +1 COL108 +1 COL115 +1 COL116 +1 COL117 +1 COL127 +1 COL128 +1 COL129 +1 COL136 +1 COL137 +1 COL138
  >= +1
 ROW032: +1 COL010 +1 COL011 +1 COL012 +1 COL031 +1 COL032 +1 COL033 +1 COL052 +1 COL053 +1 COL054 +1 COL094
  +1 COL095 +1 COL096 +1 COL115 +1 COL116 +1 COL117 +1 COL136 +1 COL137 +1 COL138 >= +1
 ROW033: +1 COL064 +1 COL065 +1 COL066 +1 COL067 +1 COL068 +1 COL069 +1 COL070 +1 COL071 +1 COL072 +1 COL085
  +1 COL086 +1 COL087 +1 COL088 +1 COL089 +1 COL090 +1 COL091 +1 COL092 +1 COL093 +1 COL106 +1 COL107
  +1 COL108 +1 COL109 +1 COL110 +1 COL111 +1 COL112 +1 COL113 +1 COL114 +1 COL127 +1 COL128 +1 COL129
  +1 COL130 +1 COL131 +1 COL132 +1 COL133 +1 COL134 +1 COL135 >= +1
 ROW034: +1 COL004 +1 COL005 +1 COL006 +1 COL007 +1 COL008 +1 COL009 +1 COL067 +1 COL068 +1 COL069 +1 COL070
  +1 COL071 +1 COL072 +1 COL088 +1 COL089 +1 COL090 +1 COL091 +1 COL092 +1 COL093 +1 COL109 +1 COL110
  +1 COL111 +1 COL112 +1 COL113 +1 COL114 +1 COL130 +1 COL131 +1 COL132 +1 COL133 +1 COL134 +1 COL135
  >= +1
 ROW035: +1 COL022 +1 COL023 +1 COL024 +1 COL028 +1 COL029 +1 COL030 +1 COL064 +1 COL065 +1 COL066 +1 COL070
  +1 COL071 +1 COL072 +1 COL085 +1 COL086 +1 COL087 +1 COL091 +1 COL092 +1 COL093 +1 COL106 +1 COL107
  +1 COL108 +1 COL112 +1 COL113 +1 COL114 +1 COL127 +1 COL128 +1 COL129 +1 COL133 +1 COL134 +1 COL135
  >= +1
 ROW036: +1 COL007 +1 COL008 +1 COL009 +1 COL028 +1 COL029 +1 COL030 +1 COL070 +1 COL071 +1 COL072 +1 COL091
  +1 COL092 +1 COL093 +1 COL112 +1 COL113 +1 COL114 +1 COL133 +1 COL134 +1 COL135 >= +1
 ROW037: +1 COL043 +1 COL044 +1 COL045 +1 COL046 +1 COL047 +1 COL048 +1 COL064 +1 COL065 +1 COL066 +1 COL067
  +1 COL068 +1 COL069 +1 COL085 +1 COL086 +1 COL087 +1 COL088 +1 COL089 +1 COL090 +1 COL106 +1 COL107
  +1 COL108 +1 COL109 +1 COL110 +1 COL111 +1 COL127 +1 COL128 +1 COL129 +1 COL130 +1 COL131 +1 COL132
  >= +1
 ROW038: +1 COL004 +1 COL005 +1 COL006 +1 COL046 +1 COL047 +1 COL048 +1 COL067 +1 COL068 +1 COL069 +1 COL088
  +1 COL089 +1 COL090 +1 COL109 +1 COL110 +1 COL111 +1 COL130 +1 COL131 +1 COL132 >= +1
 ROW039: +1 COL022 +1 COL023 +1 COL024 +1 COL043 +1 COL044 +1 COL045 +1 COL064 +1 COL065 +1 COL066 +1 COL085
  +1 COL086 +1 COL087 +1 COL106 +1 COL107 +1 COL108 +1 COL127 +1 COL128 +1 COL129 >= +1
 ROW040: +1 COL106 +1 COL107 +1 COL108 +1 COL109 +1 COL110 +1 COL111 +1 COL112 +1 COL113 +1 COL114 +1 COL115
  +1 COL116 +1 COL117 +1 COL118 +1 COL119 +1 COL120 +1 COL127 +1 COL128 +1 COL129 +1 COL130 +1 COL131
  +1 COL132 +1 COL133 +1 COL134 +1 COL135 +1 COL136 +1 COL137 +1 COL138 +1 COL139 +1 COL140 +1 COL141
  >= +1
 ROW041: +1 COL004 +1 COL007 +1 COL010 +1 COL013 +1 COL016 +1 COL019 -1 COL022 -1 COL043 -1 COL064 -1 COL085
  -1 COL106 -1 COL127 = +0
 ROW042: -1 COL004 +1 COL022 +1 COL028 +1 COL031 +1 COL034 +1 COL037 +1 COL040 -1 COL046 -1 COL067 -1 COL088
  -1 COL109 -1 COL130 = +0
 ROW043: -1 COL007 -1 COL028 +1 COL043 +1 COL046 +1 COL052 +1 COL055 +1 COL058 +1 COL061 -1 COL070 -1 COL091
  -1 COL112 -1 COL133 = +0
 ROW044: -1 COL010 -1 COL031 -1 COL052 +1 COL064 +1 COL067 +1 COL070 +1 COL076 +1 COL079 +1 COL082 -1 COL094
  -1 COL115 -1 COL136 = +0
 ROW045: -1 COL013 -1 COL034 -1 COL055 -1 COL076 +1 COL085 +1 COL088 +1 COL091 +1 COL094 +1 COL100 +1 COL103
  -1 COL118 -1 COL139 = +0
 ROW046: -1 COL016 -1 COL037 -1 COL058 -1 COL079 -1 COL100 +1 COL106 +1 COL109 +1 COL112 +1 COL115 +1 COL118
  +1 COL124 -1 COL142 = +0
 ROW047: -1 COL019 -1 COL040 -1 COL061 -1 COL082 -1 COL103 -1 COL124 +1 COL127 +1 COL130 +1 COL133 +1 COL136
  +1 COL139 +1 COL142 = +0
 ROW048: +1 COL005 +1 COL008 +1 COL011 +1 COL014 +1 COL017 +1 COL020 -1 COL023 -1 COL044 -1 COL065 -1 COL086
  -1 COL107 -1 COL128 = +0
 ROW049: -1 COL005 +1 COL023 +1 COL029 +1 COL032 +1 COL035 +1 COL038 +1 COL041 -1 COL047 -1 COL068 -1 COL089
  -1 COL110 -1 COL131 = +0
 ROW050: -1 COL008 -1 COL029 +1 COL044 +1 COL047 +1 COL053 +1 COL056 +1 COL059 +1 COL062 -1 COL071 -1 COL092
  -1 COL113 -1 COL134 = +0
 ROW051: -1 COL011 -1 COL032 -1 COL053 +1 COL065 +1 COL068 +1 COL071 +1 COL077 +1 COL080 +1 COL083 -1 COL095
  -1 COL116 -1 COL137 = +0
 ROW052: -1 COL014 -1 COL035 -1 COL056 -1 COL077 +1 COL086 +1 COL089 +1 COL092 +1 COL095 +1 COL101 +1 COL104
  -1 COL119 -1 COL140 = +0
 ROW053: -1 COL017 -1 COL038 -1 COL059 -1 COL080 -1 COL101 +1 COL107 +1 COL110 +1 COL113 +1 COL116 +1 COL119
  +1 COL125 -1 COL143 = +0
 ROW054: -1 COL020 -1 COL041 -1 COL062 -1 COL083 -1 COL104 -1 COL125 +1 COL128 +1 COL131 +1 COL134 +1 COL137
  +1 COL140 +1 COL143 = +0
 ROW055: +1 COL006 +1 COL009 +1 COL012 +1 COL015 +1 COL018 +1 COL021 -1 COL024 -1 COL045 -1 COL066 -1 COL087
  -1 COL108 -1 COL129 = +0
 ROW056: -1 COL006 +1 COL024 +1 COL030 +1 COL033 +1 COL036 +1 COL039 +1 COL042 -1 COL048 -1 COL069 -1 COL090
  -1 COL111 -1 COL132 = +0
 ROW057: -1 COL009 -1 COL030 +1 COL045 +1 COL048 +1 COL054 +1 COL057 +1 COL060 +1 COL063 -1 COL072 -1 COL093
  -1 COL114 -1 COL135 = +0
 ROW058: -1 COL012 -1 COL033 -1 COL054 +1 COL066 +1 COL069 +1 COL072 +1 COL078 +1 COL081 +1 COL084 -1 COL096
  -1 COL117 -1 COL138 = +0
 ROW059: -1 COL015 -1 COL036 -1 COL057 -1 COL078 +1 COL087 +1 COL090 +1 COL093 +1 COL096 +1 COL102 +1 COL105
  -1 COL120 -1 COL141 = +0
 ROW060: -1 COL018 -1 COL039 -1 COL060 -1 COL081 -1 COL102 +1 COL108 +1 COL111 +1 COL114 +1 COL117 +1 COL120
  +1 COL126 -1 COL144 = +0
 ROW061: -1 COL021 -1 COL042 -1 COL063 -1 COL084 -1 COL105 -1 COL126 +1 COL129 +1 COL132 +1 COL135 +1 COL138
  +1 COL141 +1 COL144 = +0
 ROW062: +1 COL016 +1 COL019 +1 COL037 +1 COL040 +1 COL058 +1 COL061 +1 COL079 +1 COL082 +1 COL100 +1 COL103
  <= +1
 ROW063: +1 COL017 +1 COL020 +1 COL038 +1 COL041 +1 COL059 +1 COL062 +1 COL080 +1 COL083 +1 COL101 +1 COL104
  <= +1
 ROW064: +1 COL018 +1 COL021 +1 COL039 +1 COL042 +1 COL060 +1 COL063 +1 COL081 +1 COL084 +1 COL102 +1 COL105
  <= +1
 ROW065: -300 COL148 +100 COL150 +100 COL152 +100 COL154 +100 COL156 +100 COL158 <= +0
 ROW066: -300 COL149 +100 COL151 +100 COL153 +100 COL155 +100 COL157 +100 COL159 <= +0
 ROW067: +1 COL001 +1 COL004 +1 COL007 +1 COL010 +1 COL013 +1 COL016 +1 COL019 +1 COL106 +1 COL109 +1 COL112
  +1 COL115 +1 COL118 +1 COL121 +1 COL124 -1 COL150 <= +1
 ROW068: +1 COL002 +1 COL005 +1 COL008 +1 COL011 +1 COL014 +1 COL017 +1 COL020 +1 COL107 +1 COL110 +1 COL113
  +1 COL116 +1 COL119 +1 COL122 +1 COL125 -1 COL150 <= +1
 ROW069: +1 COL003 +1 COL006 +1 COL009 +1 COL012 +1 COL015 +1 COL018 +1 COL021 +1 COL108 +1 COL111 +1 COL114
  +1 COL117 +1 COL120 +1 COL123 +1 COL126 -1 COL150 <= +1
 ROW070: +1 COL001 +1 COL004 +1 COL007 +1 COL010 +1 COL013 +1 COL016 +1 COL019 +1 COL127 +1 COL130 +1 COL133
  +1 COL136 +1 COL139 +1 COL142 +1 COL145 -1 COL151 <= +1
 ROW071: +1 COL002 +1 COL005 +1 COL008 +1 COL011 +1 COL014 +1 COL017 +1 COL020 +1 COL128 +1 COL131 +1 COL134
  +1 COL137 +1 COL140 +1 COL143 +1 COL146 -1 COL151 <= +1
 ROW072: +1 COL003 +1 COL006 +1 COL009 +1 COL012 +1 COL015 +1 COL018 +1 COL021 +1 COL129 +1 COL132 +1 COL135
  +1 COL138 +1 COL141 +1 COL144 +1 COL147 -1 COL151 <= +1
 ROW073: +1 COL022 +1 COL025 +1 COL028 +1 COL031 +1 COL034 +1 COL037 +1 COL040 +1 COL106 +1 COL109 +1 COL112
  +1 COL115 +1 COL118 +1 COL121 +1 COL124 -1 COL152 <= +1
 ROW074: +1 COL023 +1 COL026 +1 COL029 +1 COL032 +1 COL035 +1 COL038 +1 COL041 +1 COL107 +1 COL110 +1 COL113
  +1 COL116 +1 COL119 +1 COL122 +1 COL125 -1 COL152 <= +1
 ROW075: +1 COL024 +1 COL027 +1 COL030 +1 COL033 +1 COL036 +1 COL039 +1 COL042 +1 COL108 +1 COL111 +1 COL114
  +1 COL117 +1 COL120 +1 COL123 +1 COL126 -1 COL152 <= +1
 ROW076: +1 COL022 +1 COL025 +1 COL028 +1 COL031 +1 COL034 +1 COL037 +1 COL040 +1 COL127 +1 COL130 +1 COL133
  +1 COL136 +1 COL139 +1 COL142 +1 COL145 -1 COL153 <= +1
 ROW077: +1 COL023 +1 COL026 +1 COL029 +1 COL032 +1 COL035 +1 COL038 +1 COL041 +1 COL128 +1 COL131 +1 COL134
  +1 COL137 +1 COL140 +1 COL143 +1 COL146 -1 COL153 <= +1
 ROW078: +1 COL024 +1 COL027 +1 COL030 +1 COL033 +1 COL036 +1 COL039 +1 COL042 +1 COL129 +1 COL132 +1 COL135
  +1 COL138 +1 COL141 +1 COL144 +1 COL147 -1 COL153 <= +1
 ROW079: +1 COL043 +1 COL046 +1 COL049 +1 COL052 +1 COL055 +1 COL058 +1 COL061 +1 COL106 +1 COL109 +1 COL112
  +1 COL115 +1 COL118 +1 COL121 +1 COL124 -1 COL154 <= +1
 ROW080: +1 COL044 +1 COL047 +1 COL050 +1 COL053 +1 COL056 +1 COL059 +1 COL062 +1 COL107 +1 COL110 +1 COL113
  +1 COL116 +1 COL119 +1 COL122 +1 COL125 -1 COL154 <= +1
 ROW081: +1 COL045 +1 COL048 +1 COL051 +1 COL054 +1 COL057 +1 COL060 +1 COL063 +1 COL108 +1 COL111 +1 COL114
  +1 COL117 +1 COL120 +1 COL123 +1 COL126 -1 COL154 <= +1
 ROW082: +1 COL043 +1 COL046 +1 COL049 +1 COL052 +1 COL055 +1 COL058 +1 COL061 +1 COL127 +1 COL130 +1 COL133
  +1 COL136 +1 COL139 +1 COL142 +1 COL145 -1 COL155 <= +1
 ROW083: +1 COL044 +1 COL047 +1 COL050 +1 COL053 +1 COL056 +1 COL059 +1 COL062 +1 COL128 +1 COL131 +1 COL134
  +1 COL137 +1 COL140 +1 COL143 +1 COL146 -1 COL155 <= +1
 ROW084: +1 COL045 +1 COL048 +1 COL051 +1 COL054 +1 COL057 +1 COL060 +1 COL063 +1 COL129 +1 COL132 +1 COL135
  +1 COL138 +1 COL141 +1 COL144 +1 COL147 -1 COL155 <= +1
 ROW085: +1 COL064 +1 COL067 +1 COL070 +1 COL073 +1 COL076 +1 COL079 +1 COL082 +1 COL106 +1 COL109 +1 COL112
  +1 COL115 +1 COL118 +1 COL121 +1 COL124 -1 COL156 <= +1
 ROW086: +1 COL065 +1 COL068 +1 COL071 +1 COL074 +1 COL077 +1 COL080 +1 COL083 +1 COL107 +1 COL110 +1 COL113
  +1 COL116 +1 COL119 +1 COL122 +1 COL125 -1 COL156 <= +1
 ROW087: +1 COL066 +1 COL069 +1 COL072 +1 COL075 +1 COL078 +1 COL081 +1 COL084 +1 COL108 +1 COL111 +1 COL114
  +1 COL117 +1 COL120 +1 COL123 +1 COL126 -1 COL156 <= +1
 ROW088: +1 COL064 +1 COL067 +1 COL070 +1 COL073 +1 COL076 +1 COL079 +1 COL082 +1 COL127 +1 COL130 +1 COL133
  +1 COL136 +1 COL139 +1 COL142 +1 COL145 -1 COL157 <= +1
 ROW089: +1 COL065 +1 COL068 +1 COL071 +1 COL074 +1 COL077 +1 COL080 +1 COL083 +1 COL128 +1 COL131 +1 COL134
  +1 COL137 +1 COL140 +1 COL143 +1 COL146 -1 COL157 <= +1
 ROW090: +1 COL066 +1 COL069 +1 COL072 +1 COL075 +1 COL078 +1 COL081 +1 COL084 +1 COL129 +1 COL132 +1 COL135
  +1 COL138 +1 COL141 +1 COL144 +1 COL147 -1 COL157 <= +1
 ROW091: +1 COL085 +1 COL088 +1 COL091 +1 COL094 +1 COL097 +1 COL100 +1 COL103 +1 COL106 +1 COL109 +1 COL112
  +1 COL115 +1 COL118 +1 COL121 +1 COL124 -1 COL158 <= +1
 ROW092: +1 COL086 +1 COL089 +1 COL092 +1 COL095 +1 COL098 +1 COL101 +1 COL104 +1 COL107 +1 COL110 +1 COL113
  +1 COL116 +1 COL119 +1 COL122 +1 COL125 -1 COL158 <= +1
 ROW093: +1 COL087 +1 COL090 +1 COL093 +1 COL096 +1 COL099 +1 COL102 +1 COL105 +1 COL108 +1 COL111 +1 COL114
  +1 COL117 +1 COL120 +1 COL123 +1 COL126 -1 COL158 <= +1
 ROW094: +1 COL085 +1 COL088 +1 COL091 +1 COL094 +1 COL097 +1 COL100 +1 COL103 +1 COL127 +1 COL130 +1 COL133
  +1 COL136 +1 COL139 +1 COL142 +1 COL145 -1 COL159 <= +1
 ROW095: +1 COL086 +1 COL089 +1 COL092 +1 COL095 +1 COL098 +1 COL101 +1 COL104 +1 COL128 +1 COL131 +1 COL134
  +1 COL137 +1 COL140 +1 COL143 +1 COL146 -1 COL159 <= +1
 ROW096: +1 COL087 +1 COL090 +1 COL093 +1 COL096 +1 COL099 +1 COL102 +1 COL105 +1 COL129 +1 COL132 +1 COL135
  +1 COL138 +1 COL141 +1 COL144 +1 COL147 -1 COL159 <= +1
Bounds
 0 <= COL158 <= 1
 0 <= COL001 <= 1
 0 <= COL002 <= 1
 0 <= COL003 <= 1
 0 <= COL004 <= 1
 0 <= COL005 <= 1
 0 <= COL006 <= 1
 0 <= COL007 <= 1
 0 <= COL008 <= 1
 0 <= COL009 <= 1
 0 <= COL010 <= 1
 0 <= COL011 <= 1
 0 <= COL012 <= 1
 0 <= COL013 <= 1
 0 <= COL014 <= 1
 0 <= COL015 <= 1
 0 <= COL016 <= 1
 0 <= COL017 <= 1
 0 <= COL018 <= 1
 0 <= COL019 <= 1
 0 <= COL020 <= 1
 0 <= COL021 <= 1
 0 <= COL022 <= 1
 0 <= COL023 <= 1
 0 <= COL024 <= 1
 0 <= COL025 <= 1
 0 <= COL026 <= 1
 0 <= COL027 <= 1
 0 <= COL028 <= 1
 0 <= COL029 <= 1
 0 <= COL030 <= 1
 0 <= COL031 <= 1
 0 <= COL032 <= 1
 0 <= COL033 <= 1
 0 <= COL034 <= 1
 0 <= COL035 <= 1
 0 <= COL036 <= 1
 0 <= COL037 <= 1
 0 <= COL038 <= 1
 0 <= COL039 <= 1
 0 <= COL040 <= 1
 0 <= COL041 <= 1
 0 <= COL042 <= 1
 0 <= COL043 <= 1
 0 <= COL044 <= 1
 0 <= COL045 <= 1
 0 <= COL046 <= 1
 0 <= COL047 <= 1
 0 <= COL048 <= 1
 0 <= COL049 <= 1
 0 <= COL050 <= 1
 0 <= COL051 <= 1
 0 <= COL052 <= 1
 0 <= COL053 <= 1
 0 <= COL054 <= 1
 0 <= COL055 <= 1
 0 <= COL056 <= 1
 0 <= COL057 <= 1
 0 <= COL058 <= 1
 0 <= COL059 <= 1
 0 <= COL060 <= 1
 0 <= COL061 <= 1
 0 <= COL062 <= 1
 0 <= COL063 <= 1
 0 <= COL064 <= 1
 0 <= COL065 <= 1
 0 <= COL066 <= 1
 0 <= COL067 <= 1
 0 <= COL068 <= 1
 0 <= COL069 <= 1
 0 <= COL070 <= 1
 0 <= COL071 <= 1
 0 <= COL072 <= 1
 0 <= COL073 <= 1
 0 <= COL074 <= 1
 0 <= COL075 <= 1
 0 <= COL076 <= 1
 0 <= COL077 <= 1
 0 <= COL078 <= 1
 0 <= COL079 <= 1
 0 <= COL080 <= 1
 0 <= COL081 <= 1
 0 <= COL082 <= 1
 0 <= COL083 <= 1
 0 <= COL084 <= 1
 0 <= COL085 <= 1
 0 <= COL086 <= 1
 0 <= COL087 <= 1
 0 <= COL088 <= 1
 0 <= COL089 <= 1
 0 <= COL090 <= 1
 0 <= COL091 <= 1
 0 <= COL092 <= 1
 0 <= COL093 <= 1
 0 <= COL094 <= 1
 0 <= COL095 <= 1
 0 <= COL096 <= 1
 0 <= COL097 <= 1
 0 <= COL098 <= 1
 0 <= COL099 <= 1
 0 <= COL100 <= 1
 0 <= COL101 <= 1
 0 <= COL102 <= 1
 0 <= COL103 <= 1
 0 <= COL104 <= 1
 0 <= COL105 <= 1
 0 <= COL106 <= 1
 0 <= COL107 <= 1
 0 <= COL108 <= 1
 0 <= COL109 <= 1
 0 <= COL110 <= 1
 0 <= COL111 <= 1
 0 <= COL112 <= 1
 0 <= COL113 <= 1
 0 <= COL114 <= 1
 0 <= COL115 <= 1
 0 <= COL116 <= 1
 0 <= COL117 <= 1
 0 <= COL118 <= 1
 0 <= COL119 <= 1
 0 <= COL120 <= 1
 0 <= COL121 <= 1
 0 <= COL122 <= 1
 0 <= COL123 <= 1
 0 <= COL124 <= 1
 0 <= COL125 <= 1
 0 <= COL126 <= 1
 0 <= COL127 <= 1
 0 <= COL128 <= 1
 0 <= COL129 <= 1
 0 <= COL130 <= 1
 0 <= COL131 <= 1
 0 <= COL132 <= 1
 0 <= COL133 <= 1
 0 <= COL134 <= 1
 0 <= COL135 <= 1
 0 <= COL136 <= 1
 0 <= COL137 <= 1
 0 <= COL138 <= 1
 0 <= COL139 <= 1
 0 <= COL140 <= 1
 0 <= COL141 <= 1
 0 <= COL142 <= 1
 0 <= COL143 <= 1
 0 <= COL144 <= 1
 0 <= COL145 <= 1
 0 <= COL146 <= 1
 0 <= COL147 <= 1
 0 <= COL148 <= 1
 0 <= COL149 <= 1
 0 <= COL150 <= 1
 0 <= COL151 <= 1
 0 <= COL152 <= 1
 0 <= COL153 <= 1
 0 <= COL154 <= 1
 0 <= COL155 <= 1
 0 <= COL156 <= 1
 0 <= COL157 <= 1
 0 <= COL159 <= 1
 COL160 free
Binaries
 COL158 COL001 COL002 COL003 COL004 COL005 COL006 COL007 COL008 COL009 COL010 COL011 COL012 COL013 COL014
 COL015 COL016 COL017 COL018 COL019 COL020 COL021 COL022 COL023 COL024 COL025 COL026 COL027 COL028 COL029
 COL030 COL031 COL032 COL033 COL034 COL035 COL036 COL037 COL038 COL039 COL040 COL041 COL042 COL043 COL044
 COL045 COL046 COL047 COL048 COL049 COL050 COL051 COL052 COL053 COL054 COL055 COL056 COL057 COL058 COL059
 COL060 COL061 COL062 COL063 COL064 COL065 COL066 COL067 COL068 COL069 COL070 COL071 COL072 COL073 COL074
 COL075 COL076 COL077 COL078 COL079 COL080 COL081 COL082 COL083 COL084 COL085 COL086 COL087 COL088 COL089
 COL090 COL091 COL092 COL093 COL094 COL095 COL096 COL097 COL098 COL099 COL100 COL101 COL102 COL103 COL104
 COL105 COL106 COL107 COL108 COL109 COL110 COL111 COL112 COL113 COL114 COL115 COL116 COL117 COL118 COL119
 COL120 COL121 COL122 COL123 COL124 COL125 COL126 COL127 COL128 COL129 COL130 COL131 COL132 COL133 COL134
 COL135 COL136 COL137 COL138 COL139 COL140 COL141 COL142 COL143 COL144 COL145 COL146 COL147 COL148 COL149
 COL150 COL151 COL152 COL153 COL154 COL155 COL156 COL157 COL159
End
