scip/repair/build/misc03_0.sol
solution status: optimal solution found
objective value:                                 3060
COL015                                              1 	(obj:0)
COL024                                              1 	(obj:0)
COL048                                              1 	(obj:0)
COL062                                              1 	(obj:0)
COL072                                              1 	(obj:0)
COL096                                              1 	(obj:0)
COL134                                              1 	(obj:0)
COL149                                              1 	(obj:0)
COL155                                              1 	(obj:0)
COL160                                           3060 	(obj:1)
